AES/1_3_4/ssaes_r1-20_c3_rw1_e4_f0_k1-20_aes_canon_box_aes_mc_bidirectional/ExperimentMinisat_r8_k1cnf_2011-10-29-151913/Result
WARNING: for repeatability, setting FPU to use double precision
============================[ Problem Statistics ]=============================
|                                                                             |
|  Number of variables:           996                                         |
|  Number of clauses:            5840                                         |
|  Parse time:                   0.00 s                                       |
|  Eliminated clauses:           0.01 Mb                                      |
|  Simplification time:          0.00 s                                       |
|                                                                             |
=============================[ Search Statistics ]==============================
| Conflicts  |          ORIGINAL         |          LEARNT          | Progress |
|            |    Vars  Clauses Literals |    Limit  Clauses Lit/Cl |          |
================================================================================
|        100 |     800     5320    16512 |     1950      100     16 |  5.624 % |
|        250 |     800     5320    16512 |     2145      250     24 |  5.623 % |
|        475 |     800     5320    16512 |     2360      475     22 |  5.623 % |
|        812 |     800     5320    16512 |     2596      812     22 |  5.623 % |
|       1318 |     800     5320    16512 |     2855     1318     21 |  5.623 % |
|       2077 |     800     5320    16512 |     3141     2077     20 |  5.623 % |
===============================================================================
restarts              : 15
conflicts             : 2762           (16844 /sec)
decisions             : 3210           (0.00 % random) (19576 /sec)
propagations          : 1010723        (6163885 /sec)
conflict literals     : 53316          (56.40 % deleted)
Memory used           : 8.00 MB
CPU time              : 0.163975 s

SATISFIABLE
